15 3 
4142	4142	4142	
740	691	841	
841	74	125	
775	553	769	
955	419	584	
466	374	412	
728	956	1241	
732	151	204	
823	958	1630	
37	64	99	
630	682	945	
438	699	755	
641	932	1188	
475	270	535	
365	692	1276	
491	770	1408	
